0,158,51,123,0
0,188,184,153,166,151,125,167,70,0
0,73,20,38,121,181,103,101,81,0
0,140,92,8,104,118,152,88,111,97,0
0,63,44,68,133,27,195,180,9,107,0
0,15,71,193,175,33,186,144,179,190,0
0,55,41,28,86,131,25,116,49,61,0
0,145,192,53,2,122,76,17,200,112,59,0
0,168,143,21,165,124,134,1,156,172,148,0
0,87,161,115,16,162,171,170,187,42,146,0
0,120,26,48,176,31,113,126,139,78,119,0
0,4,93,137,150,80,64,109,182,91,7,197,0
0,106,19,95,138,22,47,82,74,52,110,37,0
0,164,85,94,12,136,23,29,96,58,127,77,0
0,132,18,5,117,160,79,14,154,60,105,75,0
0,157,199,135,147,72,56,84,177,174,45,24,149,0
0,57,173,100,163,98,6,189,159,13,90,32,83,0
0,155,67,36,3,130,11,66,50,69,185,169,102,0
0,46,129,141,54,89,178,39,191,43,65,114,198,0
0,196,30,35,99,34,62,194,142,128,183,40,10,108,0
